
Gurobi 6.0.4 (linux64) logging started Wed Mar 30 19:54:53 2016


Gurobi 6.0.4 (linux64) logging started Wed Mar 30 19:55:57 2016


Gurobi 6.0.4 (linux64) logging started Wed Mar 30 20:05:32 2016


Gurobi 6.0.4 (linux64) logging started Wed Mar 30 20:06:31 2016


Gurobi 6.0.4 (linux64) logging started Wed Mar 30 20:25:41 2016


Gurobi 6.0.4 (linux64) logging started Wed Mar 30 20:29:08 2016


Gurobi 6.0.4 (linux64) logging started Wed Mar 30 20:44:32 2016


Gurobi 6.0.4 (linux64) logging started Wed Mar 30 20:46:16 2016


Gurobi 6.0.4 (linux64) logging started Wed Mar 30 21:00:28 2016


Gurobi 6.0.4 (linux64) logging started Wed Mar 30 21:06:25 2016


Gurobi 6.0.4 (linux64) logging started Wed Mar 30 21:11:19 2016


Gurobi 6.0.4 (linux64) logging started Wed Mar 30 21:12:09 2016


Gurobi 6.0.4 (linux64) logging started Wed Mar 30 21:36:21 2016


Gurobi 6.0.4 (linux64) logging started Wed Mar 30 21:38:05 2016


Gurobi 6.0.4 (linux64) logging started Wed Mar 30 21:39:43 2016


Gurobi 6.0.4 (linux64) logging started Thu Mar 31 00:08:43 2016


Gurobi 6.0.4 (linux64) logging started Thu Mar 31 00:09:56 2016


Gurobi 6.0.4 (linux64) logging started Thu Mar 31 00:11:39 2016


Gurobi 6.0.4 (linux64) logging started Thu Mar 31 00:12:20 2016


Gurobi 6.0.4 (linux64) logging started Thu Mar 31 00:14:56 2016


Gurobi 6.0.4 (linux64) logging started Thu Mar 31 00:16:29 2016


Gurobi 6.0.4 (linux64) logging started Thu Mar 31 00:17:57 2016


Gurobi 6.0.4 (linux64) logging started Thu Mar 31 00:19:22 2016


Gurobi 6.0.4 (linux64) logging started Thu Mar 31 00:24:50 2016


Gurobi 6.0.4 (linux64) logging started Thu Mar 31 00:25:43 2016


Gurobi 6.0.4 (linux64) logging started Thu Mar 31 00:37:37 2016


Gurobi 6.0.4 (linux64) logging started Thu Mar 31 00:38:49 2016


Gurobi 6.0.4 (linux64) logging started Thu Mar 31 00:39:58 2016


Gurobi 6.0.4 (linux64) logging started Thu Mar 31 00:41:30 2016


Gurobi 6.0.4 (linux64) logging started Thu Mar 31 00:42:56 2016


Gurobi 6.0.4 (linux64) logging started Thu Mar 31 00:45:14 2016


Gurobi 6.0.4 (linux64) logging started Thu Mar 31 00:46:49 2016


Gurobi 6.0.4 (linux64) logging started Thu Mar 31 00:56:43 2016


Gurobi 6.0.4 (linux64) logging started Thu Mar 31 00:58:49 2016


Gurobi 6.0.4 (linux64) logging started Thu Mar 31 00:58:58 2016


Gurobi 6.0.4 (linux64) logging started Thu Mar 31 01:00:10 2016


Gurobi 6.0.4 (linux64) logging started Thu Mar 31 01:02:22 2016


Gurobi 6.0.4 (linux64) logging started Thu Mar 31 01:30:01 2016


Gurobi 6.0.4 (linux64) logging started Thu Mar 31 01:33:12 2016


Gurobi 6.0.4 (linux64) logging started Thu Mar 31 01:42:09 2016


Gurobi 6.0.4 (linux64) logging started Thu Mar 31 03:05:36 2016


Gurobi 6.0.4 (linux64) logging started Thu Mar 31 14:38:22 2016


Gurobi 6.0.4 (linux64) logging started Tue Apr  5 15:35:20 2016


Gurobi 6.0.4 (linux64) logging started Tue Apr  5 16:53:10 2016


Gurobi 6.0.4 (linux64) logging started Tue Apr  5 17:06:01 2016


Gurobi 6.0.4 (linux64) logging started Tue Apr  5 17:06:48 2016


Gurobi 6.0.4 (linux64) logging started Tue Apr  5 17:07:51 2016


Gurobi 6.0.4 (linux64) logging started Tue Apr  5 17:08:47 2016


Gurobi 6.0.4 (linux64) logging started Tue Apr  5 17:11:21 2016


Gurobi 6.0.4 (linux64) logging started Tue Apr  5 17:13:08 2016


Gurobi 6.0.4 (linux64) logging started Tue Apr  5 17:15:39 2016


Gurobi 6.0.4 (linux64) logging started Tue Apr  5 17:19:09 2016


Gurobi 6.0.4 (linux64) logging started Tue Apr  5 18:52:12 2016


Gurobi 6.0.4 (linux64) logging started Tue Apr  5 18:53:56 2016


Gurobi 6.0.4 (linux64) logging started Tue Apr  5 18:57:29 2016


Gurobi 6.0.4 (linux64) logging started Tue Apr  5 18:57:51 2016


Gurobi 6.0.4 (linux64) logging started Tue Apr  5 19:07:21 2016


Gurobi 6.0.4 (linux64) logging started Tue Apr  5 19:08:43 2016


Gurobi 6.0.4 (linux64) logging started Tue Apr  5 19:21:35 2016


Gurobi 6.0.4 (linux64) logging started Tue Apr  5 19:29:30 2016


Gurobi 6.0.4 (linux64) logging started Tue Apr  5 19:29:57 2016


Gurobi 6.0.4 (linux64) logging started Tue Apr  5 21:51:47 2016


Gurobi 6.0.4 (linux64) logging started Tue Apr  5 21:52:00 2016


Gurobi 6.0.4 (linux64) logging started Tue Apr  5 23:10:50 2016


Gurobi 6.0.4 (linux64) logging started Tue Apr  5 23:13:21 2016


Gurobi 6.0.4 (linux64) logging started Tue Apr  5 23:14:47 2016


Gurobi 6.0.4 (linux64) logging started Tue Apr  5 23:17:10 2016


Gurobi 6.0.4 (linux64) logging started Tue Apr  5 23:18:14 2016


Gurobi 6.0.4 (linux64) logging started Tue Apr  5 23:21:13 2016


Gurobi 6.0.4 (linux64) logging started Tue Apr  5 23:22:03 2016


Gurobi 6.0.4 (linux64) logging started Tue Apr  5 23:23:33 2016


Gurobi 6.0.4 (linux64) logging started Tue Apr  5 23:23:40 2016


Gurobi 6.0.4 (linux64) logging started Tue Apr  5 23:25:07 2016


Gurobi 6.0.4 (linux64) logging started Tue Apr  5 23:28:34 2016


Gurobi 6.0.4 (linux64) logging started Tue Apr  5 23:32:12 2016


Gurobi 6.0.4 (linux64) logging started Tue Apr  5 23:32:25 2016


Gurobi 6.0.4 (linux64) logging started Tue Apr  5 23:38:49 2016


Gurobi 6.0.4 (linux64) logging started Tue Apr  5 23:39:30 2016


Gurobi 6.0.4 (linux64) logging started Tue Apr  5 23:39:56 2016


Gurobi 6.0.4 (linux64) logging started Tue Apr  5 23:42:49 2016


Gurobi 6.0.4 (linux64) logging started Tue Apr  5 23:45:15 2016


Gurobi 6.0.4 (linux64) logging started Tue Apr  5 23:45:20 2016


Gurobi 6.0.4 (linux64) logging started Tue Apr  5 23:46:04 2016


Gurobi 6.0.4 (linux64) logging started Tue Apr  5 23:46:14 2016


Gurobi 6.0.4 (linux64) logging started Tue Apr  5 23:46:57 2016


Gurobi 6.0.4 (linux64) logging started Tue Apr  5 23:48:26 2016


Gurobi 6.0.4 (linux64) logging started Wed Apr  6 00:15:52 2016


Gurobi 6.0.4 (linux64) logging started Wed Apr  6 00:17:24 2016


Gurobi 6.0.4 (linux64) logging started Wed Apr  6 00:22:14 2016


Gurobi 6.0.4 (linux64) logging started Wed Apr  6 00:22:40 2016


Gurobi 6.0.4 (linux64) logging started Wed Apr  6 00:23:04 2016


Gurobi 6.0.4 (linux64) logging started Wed Apr  6 00:25:35 2016


Gurobi 6.0.4 (linux64) logging started Wed Apr  6 00:26:34 2016


Gurobi 6.0.4 (linux64) logging started Wed Apr  6 00:34:23 2016


Gurobi 6.0.4 (linux64) logging started Wed Apr  6 00:36:08 2016


Gurobi 6.0.4 (linux64) logging started Wed Apr  6 00:48:12 2016


Gurobi 6.0.4 (linux64) logging started Wed Apr  6 00:49:48 2016


Gurobi 6.0.4 (linux64) logging started Wed Apr  6 00:51:45 2016


Gurobi 6.0.4 (linux64) logging started Wed Apr  6 00:53:37 2016


Gurobi 6.0.4 (linux64) logging started Wed Apr  6 01:01:06 2016


Gurobi 6.0.4 (linux64) logging started Wed Apr  6 01:02:54 2016


Gurobi 6.0.4 (linux64) logging started Wed Apr  6 01:06:29 2016


Gurobi 6.0.4 (linux64) logging started Wed Apr  6 01:08:32 2016


Gurobi 6.0.4 (linux64) logging started Wed Apr  6 01:15:27 2016


Gurobi 6.0.4 (linux64) logging started Tue Apr 12 12:06:18 2016


Gurobi 6.0.4 (linux64) logging started Tue Apr 12 21:27:28 2016


Gurobi 6.0.4 (linux64) logging started Tue Apr 12 21:55:52 2016


Gurobi 6.0.4 (linux64) logging started Tue Apr 12 22:01:53 2016


Gurobi 6.0.4 (linux64) logging started Tue Apr 12 22:04:37 2016


Gurobi 6.0.4 (linux64) logging started Tue Apr 12 22:05:17 2016


Gurobi 6.0.4 (linux64) logging started Tue Apr 12 22:06:35 2016


Gurobi 6.0.4 (linux64) logging started Tue Apr 12 22:08:16 2016


Gurobi 6.0.4 (linux64) logging started Tue Apr 12 22:11:41 2016


Gurobi 6.0.4 (linux64) logging started Tue Apr 12 22:39:04 2016


Gurobi 6.0.4 (linux64) logging started Tue Apr 12 22:53:30 2016


Gurobi 6.0.4 (linux64) logging started Tue Apr 12 22:55:19 2016


Gurobi 6.0.4 (linux64) logging started Tue Apr 12 23:15:56 2016


Gurobi 6.0.4 (linux64) logging started Tue Apr 12 23:17:09 2016


Gurobi 6.0.4 (linux64) logging started Wed Apr 13 11:42:12 2016


Gurobi 6.0.4 (linux64) logging started Wed Apr 13 12:21:58 2016


Gurobi 6.0.4 (linux64) logging started Wed Apr 13 12:23:51 2016


Gurobi 6.0.4 (linux64) logging started Wed Apr 13 12:28:05 2016


Gurobi 6.0.4 (linux64) logging started Wed Apr 13 12:29:25 2016


Gurobi 6.0.4 (linux64) logging started Wed Apr 13 12:30:15 2016


Gurobi 6.0.4 (linux64) logging started Wed Apr 13 12:55:26 2016


Gurobi 6.0.4 (linux64) logging started Wed Apr 13 13:00:53 2016


Gurobi 6.0.4 (linux64) logging started Thu Apr 14 16:01:51 2016


Gurobi 6.0.4 (linux64) logging started Thu Apr 14 16:35:48 2016


Gurobi 6.0.4 (linux64) logging started Mon Apr 18 15:15:59 2016


Gurobi 6.0.4 (linux64) logging started Mon Apr 18 20:57:45 2016


Gurobi 6.0.4 (linux64) logging started Tue Apr 19 02:59:16 2016


Gurobi 6.0.4 (linux64) logging started Tue Apr 19 08:46:02 2016

